c A SAT instance generated from a 3-CNF formula that had 15 clauses and 15 variables
p cnf 15 15
-8 -9 12 0
15 14 -12 0
12 -8 -2 0
5 10 -9 0
7 1 9 0
12 -1 -11 0
3 14 -1 0
10 8 1 0
10 15 6 0
-9 8 5 0
6 -8 -10 0
-15 2 4 0
-10 -2 8 0
3 7 9 0
15 13 12 0
